
Gurobi 6.5.2 (linux64) logging started Mon Dec 12 22:28:44 2016


Gurobi 6.5.2 (linux64) logging started Mon Dec 12 22:28:44 2016

Optimize a model with 201 rows, 1585 columns and 3173 nonzeros
Coefficient statistics:
  Matrix range    [1e+00, 2e+00]
  Objective range [1e+00, 1e+02]
  Bounds range    [1e+00, 1e+00]
  RHS range       [1e+00, 1e+00]
Presolve removed 100 rows and 98 columns
Presolve time: 0.01s
Presolved: 101 rows, 1487 columns, 2975 nonzeros
Variable types: 0 continuous, 1487 integer (1487 binary)

Root relaxation: objective 1.621000e+03, 152 iterations, 0.00 seconds

    Nodes    |    Current Node    |     Objective Bounds      |     Work
 Expl Unexpl |  Obj  Depth IntInf | Incumbent    BestBd   Gap | It/Node Time

     0     0 1621.00000    0   14          - 1621.00000      -     -    0s
     0     0 1624.03448    0   36          - 1624.03448      -     -    0s
     0     0 1624.03704    0   36          - 1624.03704      -     -    0s
     0     0 1624.03704    0   35          - 1624.03704      -     -    0s
     0     2 1624.03704    0   35          - 1624.03704      -     -    0s
*   13    19               6    1627.0000000 1626.50000  0.03%   5.2    0s

Cutting planes:
  MIR: 1
  Zero half: 4
  Lazy constraints: 12

Explored 93 nodes (624 simplex iterations) in 0.16 seconds
Thread count was 8 (of 8 available processors)

Optimal solution found (tolerance 1.00e-04)
Best objective 1.627000000000e+03, best bound 1.627000000000e+03, gap 0.0%
